(set-info :smt-lib-version 2.6)
(set-logic QF_NIA)
(set-info :source |
 more info in 'N. P. Lopes, L. Aksoy, V. Manquinho, J. Monteiro.
 Optimally Solving the MCM Problem Using Pseudo-Boolean Satisfiability.
 Technical Report RT/43/2010, INESC-ID, Nov. 2010'. |)
(set-info :category "industrial")
(set-info :status unknown)
(declare-fun X6 () Int)
(declare-fun X7 () Int)
(declare-fun X8 () Int)
(declare-fun X9 () Int)
(declare-fun X10 () Int)
(declare-fun S0 () Int)
(declare-fun S1 () Int)
(declare-fun S2 () Int)
(declare-fun S3 () Int)
(declare-fun S4 () Int)
(declare-fun S5 () Int)
(declare-fun S6 () Int)
(declare-fun S7 () Int)
(declare-fun S8 () Int)
(declare-fun S9 () Int)
(define-fun power2 ((x Int)) Bool
  (or (= x 2048) (= x 1024) (= x 512) (= x 256) (= x 128) (= x 64) (= x 32) (= x 16) (= x 8) (= x 4) (= x 2) (= x 1)))
(assert (or
 (= X6 (+ S0 S1))
 (= X6 (- S0 S1))
 (= X6 (+ (* 9 S0) S1))
 (= X6 (- (* 9 S0) S1))
 (= X6 (- S0 (* 9 S1)))
 (= X6 (+ (* 9 S0) (* 9 S1)))
 (= X6 (- (* 9 S0) (* 9 S1)))
 (= X6 (+ (* 9 S0) (* 577 S1)))
 (= X6 (- (* 9 S0) (* 577 S1)))
 (= X6 (- (* 577 S0) (* 9 S1)))
 (= X6 (+ (* 9 S0) (* 2039 S1)))
 (= X6 (- (* 9 S0) (* 2039 S1)))
 (= X6 (- (* 2039 S0) (* 9 S1)))
 (= X6 (+ (* 9 S0) (* 649 S1)))
 (= X6 (- (* 9 S0) (* 649 S1)))
 (= X6 (- (* 649 S0) (* 9 S1)))
 (= X6 (+ (* 9 S0) (* 647 S1)))
 (= X6 (- (* 9 S0) (* 647 S1)))
 (= X6 (- (* 647 S0) (* 9 S1)))
 (= X6 (+ (* 9 S0) (* 683 S1)))
 (= X6 (- (* 9 S0) (* 683 S1)))
 (= X6 (- (* 683 S0) (* 9 S1)))
 (= X6 (+ (* 577 S0) S1))
 (= X6 (- (* 577 S0) S1))
 (= X6 (- S0 (* 577 S1)))
 (= X6 (+ (* 577 S0) (* 577 S1)))
 (= X6 (- (* 577 S0) (* 577 S1)))
 (= X6 (+ (* 577 S0) (* 2039 S1)))
 (= X6 (- (* 577 S0) (* 2039 S1)))
 (= X6 (- (* 2039 S0) (* 577 S1)))
 (= X6 (+ (* 577 S0) (* 649 S1)))
 (= X6 (- (* 577 S0) (* 649 S1)))
 (= X6 (- (* 649 S0) (* 577 S1)))
 (= X6 (+ (* 577 S0) (* 647 S1)))
 (= X6 (- (* 577 S0) (* 647 S1)))
 (= X6 (- (* 647 S0) (* 577 S1)))
 (= X6 (+ (* 577 S0) (* 683 S1)))
 (= X6 (- (* 577 S0) (* 683 S1)))
 (= X6 (- (* 683 S0) (* 577 S1)))
 (= X6 (+ (* 2039 S0) S1))
 (= X6 (- (* 2039 S0) S1))
 (= X6 (- S0 (* 2039 S1)))
 (= X6 (+ (* 2039 S0) (* 2039 S1)))
 (= X6 (- (* 2039 S0) (* 2039 S1)))
 (= X6 (+ (* 2039 S0) (* 649 S1)))
 (= X6 (- (* 2039 S0) (* 649 S1)))
 (= X6 (- (* 649 S0) (* 2039 S1)))
 (= X6 (+ (* 2039 S0) (* 647 S1)))
 (= X6 (- (* 2039 S0) (* 647 S1)))
 (= X6 (- (* 647 S0) (* 2039 S1)))
 (= X6 (+ (* 2039 S0) (* 683 S1)))
 (= X6 (- (* 2039 S0) (* 683 S1)))
 (= X6 (- (* 683 S0) (* 2039 S1)))
 (= X6 (+ (* 649 S0) S1))
 (= X6 (- (* 649 S0) S1))
 (= X6 (- S0 (* 649 S1)))
 (= X6 (+ (* 649 S0) (* 649 S1)))
 (= X6 (- (* 649 S0) (* 649 S1)))
 (= X6 (+ (* 649 S0) (* 647 S1)))
 (= X6 (- (* 649 S0) (* 647 S1)))
 (= X6 (- (* 647 S0) (* 649 S1)))
 (= X6 (+ (* 649 S0) (* 683 S1)))
 (= X6 (- (* 649 S0) (* 683 S1)))
 (= X6 (- (* 683 S0) (* 649 S1)))
 (= X6 (+ (* 647 S0) S1))
 (= X6 (- (* 647 S0) S1))
 (= X6 (- S0 (* 647 S1)))
 (= X6 (+ (* 647 S0) (* 647 S1)))
 (= X6 (- (* 647 S0) (* 647 S1)))
 (= X6 (+ (* 647 S0) (* 683 S1)))
 (= X6 (- (* 647 S0) (* 683 S1)))
 (= X6 (- (* 683 S0) (* 647 S1)))
 (= X6 (+ (* 683 S0) S1))
 (= X6 (- (* 683 S0) S1))
 (= X6 (- S0 (* 683 S1)))
 (= X6 (+ (* 683 S0) (* 683 S1)))
 (= X6 (- (* 683 S0) (* 683 S1)))
))
(assert (and (> X6 0) (< X6 4096) (power2 S0) (power2 S1)))
(assert (or
 (= X7 (+ (* 9 S2) S3))
 (= X7 (- (* 9 S2) S3))
 (= X7 (- S2 (* 9 S3)))
 (= X7 (+ (* 9 S2) (* 9 S3)))
 (= X7 (- (* 9 S2) (* 9 S3)))
 (= X7 (+ (* 9 S2) (* 577 S3)))
 (= X7 (- (* 9 S2) (* 577 S3)))
 (= X7 (- (* 577 S2) (* 9 S3)))
 (= X7 (+ (* 9 S2) (* 2039 S3)))
 (= X7 (- (* 9 S2) (* 2039 S3)))
 (= X7 (- (* 2039 S2) (* 9 S3)))
 (= X7 (+ (* 9 S2) (* 649 S3)))
 (= X7 (- (* 9 S2) (* 649 S3)))
 (= X7 (- (* 649 S2) (* 9 S3)))
 (= X7 (+ (* 9 S2) (* 647 S3)))
 (= X7 (- (* 9 S2) (* 647 S3)))
 (= X7 (- (* 647 S2) (* 9 S3)))
 (= X7 (+ (* 9 S2) (* 683 S3)))
 (= X7 (- (* 9 S2) (* 683 S3)))
 (= X7 (- (* 683 S2) (* 9 S3)))
 (= X7 (+ (* 9 S2) (* X6 S3)))
 (= X7 (- (* 9 S2) (* X6 S3)))
 (= X7 (- (* X6 S2) (* 9 S3)))
 (= X7 (+ (* 577 S2) S3))
 (= X7 (- (* 577 S2) S3))
 (= X7 (- S2 (* 577 S3)))
 (= X7 (+ (* 577 S2) (* 577 S3)))
 (= X7 (- (* 577 S2) (* 577 S3)))
 (= X7 (+ (* 577 S2) (* 2039 S3)))
 (= X7 (- (* 577 S2) (* 2039 S3)))
 (= X7 (- (* 2039 S2) (* 577 S3)))
 (= X7 (+ (* 577 S2) (* 649 S3)))
 (= X7 (- (* 577 S2) (* 649 S3)))
 (= X7 (- (* 649 S2) (* 577 S3)))
 (= X7 (+ (* 577 S2) (* 647 S3)))
 (= X7 (- (* 577 S2) (* 647 S3)))
 (= X7 (- (* 647 S2) (* 577 S3)))
 (= X7 (+ (* 577 S2) (* 683 S3)))
 (= X7 (- (* 577 S2) (* 683 S3)))
 (= X7 (- (* 683 S2) (* 577 S3)))
 (= X7 (+ (* 577 S2) (* X6 S3)))
 (= X7 (- (* 577 S2) (* X6 S3)))
 (= X7 (- (* X6 S2) (* 577 S3)))
 (= X7 (+ (* 2039 S2) S3))
 (= X7 (- (* 2039 S2) S3))
 (= X7 (- S2 (* 2039 S3)))
 (= X7 (+ (* 2039 S2) (* 2039 S3)))
 (= X7 (- (* 2039 S2) (* 2039 S3)))
 (= X7 (+ (* 2039 S2) (* 649 S3)))
 (= X7 (- (* 2039 S2) (* 649 S3)))
 (= X7 (- (* 649 S2) (* 2039 S3)))
 (= X7 (+ (* 2039 S2) (* 647 S3)))
 (= X7 (- (* 2039 S2) (* 647 S3)))
 (= X7 (- (* 647 S2) (* 2039 S3)))
 (= X7 (+ (* 2039 S2) (* 683 S3)))
 (= X7 (- (* 2039 S2) (* 683 S3)))
 (= X7 (- (* 683 S2) (* 2039 S3)))
 (= X7 (+ (* 2039 S2) (* X6 S3)))
 (= X7 (- (* 2039 S2) (* X6 S3)))
 (= X7 (- (* X6 S2) (* 2039 S3)))
 (= X7 (+ (* 649 S2) S3))
 (= X7 (- (* 649 S2) S3))
 (= X7 (- S2 (* 649 S3)))
 (= X7 (+ (* 649 S2) (* 649 S3)))
 (= X7 (- (* 649 S2) (* 649 S3)))
 (= X7 (+ (* 649 S2) (* 647 S3)))
 (= X7 (- (* 649 S2) (* 647 S3)))
 (= X7 (- (* 647 S2) (* 649 S3)))
 (= X7 (+ (* 649 S2) (* 683 S3)))
 (= X7 (- (* 649 S2) (* 683 S3)))
 (= X7 (- (* 683 S2) (* 649 S3)))
 (= X7 (+ (* 649 S2) (* X6 S3)))
 (= X7 (- (* 649 S2) (* X6 S3)))
 (= X7 (- (* X6 S2) (* 649 S3)))
 (= X7 (+ (* 647 S2) S3))
 (= X7 (- (* 647 S2) S3))
 (= X7 (- S2 (* 647 S3)))
 (= X7 (+ (* 647 S2) (* 647 S3)))
 (= X7 (- (* 647 S2) (* 647 S3)))
 (= X7 (+ (* 647 S2) (* 683 S3)))
 (= X7 (- (* 647 S2) (* 683 S3)))
 (= X7 (- (* 683 S2) (* 647 S3)))
 (= X7 (+ (* 647 S2) (* X6 S3)))
 (= X7 (- (* 647 S2) (* X6 S3)))
 (= X7 (- (* X6 S2) (* 647 S3)))
 (= X7 (+ (* 683 S2) S3))
 (= X7 (- (* 683 S2) S3))
 (= X7 (- S2 (* 683 S3)))
 (= X7 (+ (* 683 S2) (* 683 S3)))
 (= X7 (- (* 683 S2) (* 683 S3)))
 (= X7 (+ (* 683 S2) (* X6 S3)))
 (= X7 (- (* 683 S2) (* X6 S3)))
 (= X7 (- (* X6 S2) (* 683 S3)))
 (= X7 (+ (* X6 S2) S3))
 (= X7 (- (* X6 S2) S3))
 (= X7 (- S2 (* X6 S3)))
 (= X7 (+ (* X6 S2) (* X6 S3)))
 (= X7 (- (* X6 S2) (* X6 S3)))
))
(assert (and (> X7 0) (< X7 4096) (power2 S2) (power2 S3)))
(assert (or
 (= X8 (+ (* 9 S4) S5))
 (= X8 (- (* 9 S4) S5))
 (= X8 (- S4 (* 9 S5)))
 (= X8 (+ (* 9 S4) (* 9 S5)))
 (= X8 (- (* 9 S4) (* 9 S5)))
 (= X8 (+ (* 9 S4) (* 577 S5)))
 (= X8 (- (* 9 S4) (* 577 S5)))
 (= X8 (- (* 577 S4) (* 9 S5)))
 (= X8 (+ (* 9 S4) (* 2039 S5)))
 (= X8 (- (* 9 S4) (* 2039 S5)))
 (= X8 (- (* 2039 S4) (* 9 S5)))
 (= X8 (+ (* 9 S4) (* 649 S5)))
 (= X8 (- (* 9 S4) (* 649 S5)))
 (= X8 (- (* 649 S4) (* 9 S5)))
 (= X8 (+ (* 9 S4) (* 647 S5)))
 (= X8 (- (* 9 S4) (* 647 S5)))
 (= X8 (- (* 647 S4) (* 9 S5)))
 (= X8 (+ (* 9 S4) (* 683 S5)))
 (= X8 (- (* 9 S4) (* 683 S5)))
 (= X8 (- (* 683 S4) (* 9 S5)))
 (= X8 (+ (* 9 S4) (* X6 S5)))
 (= X8 (- (* 9 S4) (* X6 S5)))
 (= X8 (- (* X6 S4) (* 9 S5)))
 (= X8 (+ (* 9 S4) (* X7 S5)))
 (= X8 (- (* 9 S4) (* X7 S5)))
 (= X8 (- (* X7 S4) (* 9 S5)))
 (= X8 (+ (* 577 S4) S5))
 (= X8 (- (* 577 S4) S5))
 (= X8 (- S4 (* 577 S5)))
 (= X8 (+ (* 577 S4) (* 577 S5)))
 (= X8 (- (* 577 S4) (* 577 S5)))
 (= X8 (+ (* 577 S4) (* 2039 S5)))
 (= X8 (- (* 577 S4) (* 2039 S5)))
 (= X8 (- (* 2039 S4) (* 577 S5)))
 (= X8 (+ (* 577 S4) (* 649 S5)))
 (= X8 (- (* 577 S4) (* 649 S5)))
 (= X8 (- (* 649 S4) (* 577 S5)))
 (= X8 (+ (* 577 S4) (* 647 S5)))
 (= X8 (- (* 577 S4) (* 647 S5)))
 (= X8 (- (* 647 S4) (* 577 S5)))
 (= X8 (+ (* 577 S4) (* 683 S5)))
 (= X8 (- (* 577 S4) (* 683 S5)))
 (= X8 (- (* 683 S4) (* 577 S5)))
 (= X8 (+ (* 577 S4) (* X6 S5)))
 (= X8 (- (* 577 S4) (* X6 S5)))
 (= X8 (- (* X6 S4) (* 577 S5)))
 (= X8 (+ (* 577 S4) (* X7 S5)))
 (= X8 (- (* 577 S4) (* X7 S5)))
 (= X8 (- (* X7 S4) (* 577 S5)))
 (= X8 (+ (* 2039 S4) S5))
 (= X8 (- (* 2039 S4) S5))
 (= X8 (- S4 (* 2039 S5)))
 (= X8 (+ (* 2039 S4) (* 2039 S5)))
 (= X8 (- (* 2039 S4) (* 2039 S5)))
 (= X8 (+ (* 2039 S4) (* 649 S5)))
 (= X8 (- (* 2039 S4) (* 649 S5)))
 (= X8 (- (* 649 S4) (* 2039 S5)))
 (= X8 (+ (* 2039 S4) (* 647 S5)))
 (= X8 (- (* 2039 S4) (* 647 S5)))
 (= X8 (- (* 647 S4) (* 2039 S5)))
 (= X8 (+ (* 2039 S4) (* 683 S5)))
 (= X8 (- (* 2039 S4) (* 683 S5)))
 (= X8 (- (* 683 S4) (* 2039 S5)))
 (= X8 (+ (* 2039 S4) (* X6 S5)))
 (= X8 (- (* 2039 S4) (* X6 S5)))
 (= X8 (- (* X6 S4) (* 2039 S5)))
 (= X8 (+ (* 2039 S4) (* X7 S5)))
 (= X8 (- (* 2039 S4) (* X7 S5)))
 (= X8 (- (* X7 S4) (* 2039 S5)))
 (= X8 (+ (* 649 S4) S5))
 (= X8 (- (* 649 S4) S5))
 (= X8 (- S4 (* 649 S5)))
 (= X8 (+ (* 649 S4) (* 649 S5)))
 (= X8 (- (* 649 S4) (* 649 S5)))
 (= X8 (+ (* 649 S4) (* 647 S5)))
 (= X8 (- (* 649 S4) (* 647 S5)))
 (= X8 (- (* 647 S4) (* 649 S5)))
 (= X8 (+ (* 649 S4) (* 683 S5)))
 (= X8 (- (* 649 S4) (* 683 S5)))
 (= X8 (- (* 683 S4) (* 649 S5)))
 (= X8 (+ (* 649 S4) (* X6 S5)))
 (= X8 (- (* 649 S4) (* X6 S5)))
 (= X8 (- (* X6 S4) (* 649 S5)))
 (= X8 (+ (* 649 S4) (* X7 S5)))
 (= X8 (- (* 649 S4) (* X7 S5)))
 (= X8 (- (* X7 S4) (* 649 S5)))
 (= X8 (+ (* 647 S4) S5))
 (= X8 (- (* 647 S4) S5))
 (= X8 (- S4 (* 647 S5)))
 (= X8 (+ (* 647 S4) (* 647 S5)))
 (= X8 (- (* 647 S4) (* 647 S5)))
 (= X8 (+ (* 647 S4) (* 683 S5)))
 (= X8 (- (* 647 S4) (* 683 S5)))
 (= X8 (- (* 683 S4) (* 647 S5)))
 (= X8 (+ (* 647 S4) (* X6 S5)))
 (= X8 (- (* 647 S4) (* X6 S5)))
 (= X8 (- (* X6 S4) (* 647 S5)))
 (= X8 (+ (* 647 S4) (* X7 S5)))
 (= X8 (- (* 647 S4) (* X7 S5)))
 (= X8 (- (* X7 S4) (* 647 S5)))
 (= X8 (+ (* 683 S4) S5))
 (= X8 (- (* 683 S4) S5))
 (= X8 (- S4 (* 683 S5)))
 (= X8 (+ (* 683 S4) (* 683 S5)))
 (= X8 (- (* 683 S4) (* 683 S5)))
 (= X8 (+ (* 683 S4) (* X6 S5)))
 (= X8 (- (* 683 S4) (* X6 S5)))
 (= X8 (- (* X6 S4) (* 683 S5)))
 (= X8 (+ (* 683 S4) (* X7 S5)))
 (= X8 (- (* 683 S4) (* X7 S5)))
 (= X8 (- (* X7 S4) (* 683 S5)))
 (= X8 (+ (* X6 S4) S5))
 (= X8 (- (* X6 S4) S5))
 (= X8 (- S4 (* X6 S5)))
 (= X8 (+ (* X6 S4) (* X6 S5)))
 (= X8 (- (* X6 S4) (* X6 S5)))
 (= X8 (+ (* X6 S4) (* X7 S5)))
 (= X8 (- (* X6 S4) (* X7 S5)))
 (= X8 (- (* X7 S4) (* X6 S5)))
 (= X8 (+ (* X7 S4) S5))
 (= X8 (- (* X7 S4) S5))
 (= X8 (- S4 (* X7 S5)))
 (= X8 (+ (* X7 S4) (* X7 S5)))
 (= X8 (- (* X7 S4) (* X7 S5)))
))
(assert (and (> X8 0) (< X8 4096) (power2 S4) (power2 S5)))
(assert (or
 (= X9 (+ (* 9 S6) S7))
 (= X9 (- (* 9 S6) S7))
 (= X9 (- S6 (* 9 S7)))
 (= X9 (+ (* 9 S6) (* 9 S7)))
 (= X9 (- (* 9 S6) (* 9 S7)))
 (= X9 (+ (* 9 S6) (* 577 S7)))
 (= X9 (- (* 9 S6) (* 577 S7)))
 (= X9 (- (* 577 S6) (* 9 S7)))
 (= X9 (+ (* 9 S6) (* 2039 S7)))
 (= X9 (- (* 9 S6) (* 2039 S7)))
 (= X9 (- (* 2039 S6) (* 9 S7)))
 (= X9 (+ (* 9 S6) (* 649 S7)))
 (= X9 (- (* 9 S6) (* 649 S7)))
 (= X9 (- (* 649 S6) (* 9 S7)))
 (= X9 (+ (* 9 S6) (* 647 S7)))
 (= X9 (- (* 9 S6) (* 647 S7)))
 (= X9 (- (* 647 S6) (* 9 S7)))
 (= X9 (+ (* 9 S6) (* 683 S7)))
 (= X9 (- (* 9 S6) (* 683 S7)))
 (= X9 (- (* 683 S6) (* 9 S7)))
 (= X9 (+ (* 9 S6) (* X6 S7)))
 (= X9 (- (* 9 S6) (* X6 S7)))
 (= X9 (- (* X6 S6) (* 9 S7)))
 (= X9 (+ (* 9 S6) (* X7 S7)))
 (= X9 (- (* 9 S6) (* X7 S7)))
 (= X9 (- (* X7 S6) (* 9 S7)))
 (= X9 (+ (* 9 S6) (* X8 S7)))
 (= X9 (- (* 9 S6) (* X8 S7)))
 (= X9 (- (* X8 S6) (* 9 S7)))
 (= X9 (+ (* 577 S6) S7))
 (= X9 (- (* 577 S6) S7))
 (= X9 (- S6 (* 577 S7)))
 (= X9 (+ (* 577 S6) (* 577 S7)))
 (= X9 (- (* 577 S6) (* 577 S7)))
 (= X9 (+ (* 577 S6) (* 2039 S7)))
 (= X9 (- (* 577 S6) (* 2039 S7)))
 (= X9 (- (* 2039 S6) (* 577 S7)))
 (= X9 (+ (* 577 S6) (* 649 S7)))
 (= X9 (- (* 577 S6) (* 649 S7)))
 (= X9 (- (* 649 S6) (* 577 S7)))
 (= X9 (+ (* 577 S6) (* 647 S7)))
 (= X9 (- (* 577 S6) (* 647 S7)))
 (= X9 (- (* 647 S6) (* 577 S7)))
 (= X9 (+ (* 577 S6) (* 683 S7)))
 (= X9 (- (* 577 S6) (* 683 S7)))
 (= X9 (- (* 683 S6) (* 577 S7)))
 (= X9 (+ (* 577 S6) (* X6 S7)))
 (= X9 (- (* 577 S6) (* X6 S7)))
 (= X9 (- (* X6 S6) (* 577 S7)))
 (= X9 (+ (* 577 S6) (* X7 S7)))
 (= X9 (- (* 577 S6) (* X7 S7)))
 (= X9 (- (* X7 S6) (* 577 S7)))
 (= X9 (+ (* 577 S6) (* X8 S7)))
 (= X9 (- (* 577 S6) (* X8 S7)))
 (= X9 (- (* X8 S6) (* 577 S7)))
 (= X9 (+ (* 2039 S6) S7))
 (= X9 (- (* 2039 S6) S7))
 (= X9 (- S6 (* 2039 S7)))
 (= X9 (+ (* 2039 S6) (* 2039 S7)))
 (= X9 (- (* 2039 S6) (* 2039 S7)))
 (= X9 (+ (* 2039 S6) (* 649 S7)))
 (= X9 (- (* 2039 S6) (* 649 S7)))
 (= X9 (- (* 649 S6) (* 2039 S7)))
 (= X9 (+ (* 2039 S6) (* 647 S7)))
 (= X9 (- (* 2039 S6) (* 647 S7)))
 (= X9 (- (* 647 S6) (* 2039 S7)))
 (= X9 (+ (* 2039 S6) (* 683 S7)))
 (= X9 (- (* 2039 S6) (* 683 S7)))
 (= X9 (- (* 683 S6) (* 2039 S7)))
 (= X9 (+ (* 2039 S6) (* X6 S7)))
 (= X9 (- (* 2039 S6) (* X6 S7)))
 (= X9 (- (* X6 S6) (* 2039 S7)))
 (= X9 (+ (* 2039 S6) (* X7 S7)))
 (= X9 (- (* 2039 S6) (* X7 S7)))
 (= X9 (- (* X7 S6) (* 2039 S7)))
 (= X9 (+ (* 2039 S6) (* X8 S7)))
 (= X9 (- (* 2039 S6) (* X8 S7)))
 (= X9 (- (* X8 S6) (* 2039 S7)))
 (= X9 (+ (* 649 S6) S7))
 (= X9 (- (* 649 S6) S7))
 (= X9 (- S6 (* 649 S7)))
 (= X9 (+ (* 649 S6) (* 649 S7)))
 (= X9 (- (* 649 S6) (* 649 S7)))
 (= X9 (+ (* 649 S6) (* 647 S7)))
 (= X9 (- (* 649 S6) (* 647 S7)))
 (= X9 (- (* 647 S6) (* 649 S7)))
 (= X9 (+ (* 649 S6) (* 683 S7)))
 (= X9 (- (* 649 S6) (* 683 S7)))
 (= X9 (- (* 683 S6) (* 649 S7)))
 (= X9 (+ (* 649 S6) (* X6 S7)))
 (= X9 (- (* 649 S6) (* X6 S7)))
 (= X9 (- (* X6 S6) (* 649 S7)))
 (= X9 (+ (* 649 S6) (* X7 S7)))
 (= X9 (- (* 649 S6) (* X7 S7)))
 (= X9 (- (* X7 S6) (* 649 S7)))
 (= X9 (+ (* 649 S6) (* X8 S7)))
 (= X9 (- (* 649 S6) (* X8 S7)))
 (= X9 (- (* X8 S6) (* 649 S7)))
 (= X9 (+ (* 647 S6) S7))
 (= X9 (- (* 647 S6) S7))
 (= X9 (- S6 (* 647 S7)))
 (= X9 (+ (* 647 S6) (* 647 S7)))
 (= X9 (- (* 647 S6) (* 647 S7)))
 (= X9 (+ (* 647 S6) (* 683 S7)))
 (= X9 (- (* 647 S6) (* 683 S7)))
 (= X9 (- (* 683 S6) (* 647 S7)))
 (= X9 (+ (* 647 S6) (* X6 S7)))
 (= X9 (- (* 647 S6) (* X6 S7)))
 (= X9 (- (* X6 S6) (* 647 S7)))
 (= X9 (+ (* 647 S6) (* X7 S7)))
 (= X9 (- (* 647 S6) (* X7 S7)))
 (= X9 (- (* X7 S6) (* 647 S7)))
 (= X9 (+ (* 647 S6) (* X8 S7)))
 (= X9 (- (* 647 S6) (* X8 S7)))
 (= X9 (- (* X8 S6) (* 647 S7)))
 (= X9 (+ (* 683 S6) S7))
 (= X9 (- (* 683 S6) S7))
 (= X9 (- S6 (* 683 S7)))
 (= X9 (+ (* 683 S6) (* 683 S7)))
 (= X9 (- (* 683 S6) (* 683 S7)))
 (= X9 (+ (* 683 S6) (* X6 S7)))
 (= X9 (- (* 683 S6) (* X6 S7)))
 (= X9 (- (* X6 S6) (* 683 S7)))
 (= X9 (+ (* 683 S6) (* X7 S7)))
 (= X9 (- (* 683 S6) (* X7 S7)))
 (= X9 (- (* X7 S6) (* 683 S7)))
 (= X9 (+ (* 683 S6) (* X8 S7)))
 (= X9 (- (* 683 S6) (* X8 S7)))
 (= X9 (- (* X8 S6) (* 683 S7)))
 (= X9 (+ (* X6 S6) S7))
 (= X9 (- (* X6 S6) S7))
 (= X9 (- S6 (* X6 S7)))
 (= X9 (+ (* X6 S6) (* X6 S7)))
 (= X9 (- (* X6 S6) (* X6 S7)))
 (= X9 (+ (* X6 S6) (* X7 S7)))
 (= X9 (- (* X6 S6) (* X7 S7)))
 (= X9 (- (* X7 S6) (* X6 S7)))
 (= X9 (+ (* X6 S6) (* X8 S7)))
 (= X9 (- (* X6 S6) (* X8 S7)))
 (= X9 (- (* X8 S6) (* X6 S7)))
 (= X9 (+ (* X7 S6) S7))
 (= X9 (- (* X7 S6) S7))
 (= X9 (- S6 (* X7 S7)))
 (= X9 (+ (* X7 S6) (* X7 S7)))
 (= X9 (- (* X7 S6) (* X7 S7)))
 (= X9 (+ (* X7 S6) (* X8 S7)))
 (= X9 (- (* X7 S6) (* X8 S7)))
 (= X9 (- (* X8 S6) (* X7 S7)))
 (= X9 (+ (* X8 S6) S7))
 (= X9 (- (* X8 S6) S7))
 (= X9 (- S6 (* X8 S7)))
 (= X9 (+ (* X8 S6) (* X8 S7)))
 (= X9 (- (* X8 S6) (* X8 S7)))
))
(assert (and (> X9 0) (< X9 4096) (power2 S6) (power2 S7)))
(assert (or
 (= X10 (+ (* 9 S8) S9))
 (= X10 (- (* 9 S8) S9))
 (= X10 (- S8 (* 9 S9)))
 (= X10 (+ (* 9 S8) (* 9 S9)))
 (= X10 (- (* 9 S8) (* 9 S9)))
 (= X10 (+ (* 9 S8) (* 577 S9)))
 (= X10 (- (* 9 S8) (* 577 S9)))
 (= X10 (- (* 577 S8) (* 9 S9)))
 (= X10 (+ (* 9 S8) (* 2039 S9)))
 (= X10 (- (* 9 S8) (* 2039 S9)))
 (= X10 (- (* 2039 S8) (* 9 S9)))
 (= X10 (+ (* 9 S8) (* 649 S9)))
 (= X10 (- (* 9 S8) (* 649 S9)))
 (= X10 (- (* 649 S8) (* 9 S9)))
 (= X10 (+ (* 9 S8) (* 647 S9)))
 (= X10 (- (* 9 S8) (* 647 S9)))
 (= X10 (- (* 647 S8) (* 9 S9)))
 (= X10 (+ (* 9 S8) (* 683 S9)))
 (= X10 (- (* 9 S8) (* 683 S9)))
 (= X10 (- (* 683 S8) (* 9 S9)))
 (= X10 (+ (* 9 S8) (* X6 S9)))
 (= X10 (- (* 9 S8) (* X6 S9)))
 (= X10 (- (* X6 S8) (* 9 S9)))
 (= X10 (+ (* 9 S8) (* X7 S9)))
 (= X10 (- (* 9 S8) (* X7 S9)))
 (= X10 (- (* X7 S8) (* 9 S9)))
 (= X10 (+ (* 9 S8) (* X8 S9)))
 (= X10 (- (* 9 S8) (* X8 S9)))
 (= X10 (- (* X8 S8) (* 9 S9)))
 (= X10 (+ (* 9 S8) (* X9 S9)))
 (= X10 (- (* 9 S8) (* X9 S9)))
 (= X10 (- (* X9 S8) (* 9 S9)))
 (= X10 (+ (* 577 S8) S9))
 (= X10 (- (* 577 S8) S9))
 (= X10 (- S8 (* 577 S9)))
 (= X10 (+ (* 577 S8) (* 577 S9)))
 (= X10 (- (* 577 S8) (* 577 S9)))
 (= X10 (+ (* 577 S8) (* 2039 S9)))
 (= X10 (- (* 577 S8) (* 2039 S9)))
 (= X10 (- (* 2039 S8) (* 577 S9)))
 (= X10 (+ (* 577 S8) (* 649 S9)))
 (= X10 (- (* 577 S8) (* 649 S9)))
 (= X10 (- (* 649 S8) (* 577 S9)))
 (= X10 (+ (* 577 S8) (* 647 S9)))
 (= X10 (- (* 577 S8) (* 647 S9)))
 (= X10 (- (* 647 S8) (* 577 S9)))
 (= X10 (+ (* 577 S8) (* 683 S9)))
 (= X10 (- (* 577 S8) (* 683 S9)))
 (= X10 (- (* 683 S8) (* 577 S9)))
 (= X10 (+ (* 577 S8) (* X6 S9)))
 (= X10 (- (* 577 S8) (* X6 S9)))
 (= X10 (- (* X6 S8) (* 577 S9)))
 (= X10 (+ (* 577 S8) (* X7 S9)))
 (= X10 (- (* 577 S8) (* X7 S9)))
 (= X10 (- (* X7 S8) (* 577 S9)))
 (= X10 (+ (* 577 S8) (* X8 S9)))
 (= X10 (- (* 577 S8) (* X8 S9)))
 (= X10 (- (* X8 S8) (* 577 S9)))
 (= X10 (+ (* 577 S8) (* X9 S9)))
 (= X10 (- (* 577 S8) (* X9 S9)))
 (= X10 (- (* X9 S8) (* 577 S9)))
 (= X10 (+ (* 2039 S8) S9))
 (= X10 (- (* 2039 S8) S9))
 (= X10 (- S8 (* 2039 S9)))
 (= X10 (+ (* 2039 S8) (* 2039 S9)))
 (= X10 (- (* 2039 S8) (* 2039 S9)))
 (= X10 (+ (* 2039 S8) (* 649 S9)))
 (= X10 (- (* 2039 S8) (* 649 S9)))
 (= X10 (- (* 649 S8) (* 2039 S9)))
 (= X10 (+ (* 2039 S8) (* 647 S9)))
 (= X10 (- (* 2039 S8) (* 647 S9)))
 (= X10 (- (* 647 S8) (* 2039 S9)))
 (= X10 (+ (* 2039 S8) (* 683 S9)))
 (= X10 (- (* 2039 S8) (* 683 S9)))
 (= X10 (- (* 683 S8) (* 2039 S9)))
 (= X10 (+ (* 2039 S8) (* X6 S9)))
 (= X10 (- (* 2039 S8) (* X6 S9)))
 (= X10 (- (* X6 S8) (* 2039 S9)))
 (= X10 (+ (* 2039 S8) (* X7 S9)))
 (= X10 (- (* 2039 S8) (* X7 S9)))
 (= X10 (- (* X7 S8) (* 2039 S9)))
 (= X10 (+ (* 2039 S8) (* X8 S9)))
 (= X10 (- (* 2039 S8) (* X8 S9)))
 (= X10 (- (* X8 S8) (* 2039 S9)))
 (= X10 (+ (* 2039 S8) (* X9 S9)))
 (= X10 (- (* 2039 S8) (* X9 S9)))
 (= X10 (- (* X9 S8) (* 2039 S9)))
 (= X10 (+ (* 649 S8) S9))
 (= X10 (- (* 649 S8) S9))
 (= X10 (- S8 (* 649 S9)))
 (= X10 (+ (* 649 S8) (* 649 S9)))
 (= X10 (- (* 649 S8) (* 649 S9)))
 (= X10 (+ (* 649 S8) (* 647 S9)))
 (= X10 (- (* 649 S8) (* 647 S9)))
 (= X10 (- (* 647 S8) (* 649 S9)))
 (= X10 (+ (* 649 S8) (* 683 S9)))
 (= X10 (- (* 649 S8) (* 683 S9)))
 (= X10 (- (* 683 S8) (* 649 S9)))
 (= X10 (+ (* 649 S8) (* X6 S9)))
 (= X10 (- (* 649 S8) (* X6 S9)))
 (= X10 (- (* X6 S8) (* 649 S9)))
 (= X10 (+ (* 649 S8) (* X7 S9)))
 (= X10 (- (* 649 S8) (* X7 S9)))
 (= X10 (- (* X7 S8) (* 649 S9)))
 (= X10 (+ (* 649 S8) (* X8 S9)))
 (= X10 (- (* 649 S8) (* X8 S9)))
 (= X10 (- (* X8 S8) (* 649 S9)))
 (= X10 (+ (* 649 S8) (* X9 S9)))
 (= X10 (- (* 649 S8) (* X9 S9)))
 (= X10 (- (* X9 S8) (* 649 S9)))
 (= X10 (+ (* 647 S8) S9))
 (= X10 (- (* 647 S8) S9))
 (= X10 (- S8 (* 647 S9)))
 (= X10 (+ (* 647 S8) (* 647 S9)))
 (= X10 (- (* 647 S8) (* 647 S9)))
 (= X10 (+ (* 647 S8) (* 683 S9)))
 (= X10 (- (* 647 S8) (* 683 S9)))
 (= X10 (- (* 683 S8) (* 647 S9)))
 (= X10 (+ (* 647 S8) (* X6 S9)))
 (= X10 (- (* 647 S8) (* X6 S9)))
 (= X10 (- (* X6 S8) (* 647 S9)))
 (= X10 (+ (* 647 S8) (* X7 S9)))
 (= X10 (- (* 647 S8) (* X7 S9)))
 (= X10 (- (* X7 S8) (* 647 S9)))
 (= X10 (+ (* 647 S8) (* X8 S9)))
 (= X10 (- (* 647 S8) (* X8 S9)))
 (= X10 (- (* X8 S8) (* 647 S9)))
 (= X10 (+ (* 647 S8) (* X9 S9)))
 (= X10 (- (* 647 S8) (* X9 S9)))
 (= X10 (- (* X9 S8) (* 647 S9)))
 (= X10 (+ (* 683 S8) S9))
 (= X10 (- (* 683 S8) S9))
 (= X10 (- S8 (* 683 S9)))
 (= X10 (+ (* 683 S8) (* 683 S9)))
 (= X10 (- (* 683 S8) (* 683 S9)))
 (= X10 (+ (* 683 S8) (* X6 S9)))
 (= X10 (- (* 683 S8) (* X6 S9)))
 (= X10 (- (* X6 S8) (* 683 S9)))
 (= X10 (+ (* 683 S8) (* X7 S9)))
 (= X10 (- (* 683 S8) (* X7 S9)))
 (= X10 (- (* X7 S8) (* 683 S9)))
 (= X10 (+ (* 683 S8) (* X8 S9)))
 (= X10 (- (* 683 S8) (* X8 S9)))
 (= X10 (- (* X8 S8) (* 683 S9)))
 (= X10 (+ (* 683 S8) (* X9 S9)))
 (= X10 (- (* 683 S8) (* X9 S9)))
 (= X10 (- (* X9 S8) (* 683 S9)))
 (= X10 (+ (* X6 S8) S9))
 (= X10 (- (* X6 S8) S9))
 (= X10 (- S8 (* X6 S9)))
 (= X10 (+ (* X6 S8) (* X6 S9)))
 (= X10 (- (* X6 S8) (* X6 S9)))
 (= X10 (+ (* X6 S8) (* X7 S9)))
 (= X10 (- (* X6 S8) (* X7 S9)))
 (= X10 (- (* X7 S8) (* X6 S9)))
 (= X10 (+ (* X6 S8) (* X8 S9)))
 (= X10 (- (* X6 S8) (* X8 S9)))
 (= X10 (- (* X8 S8) (* X6 S9)))
 (= X10 (+ (* X6 S8) (* X9 S9)))
 (= X10 (- (* X6 S8) (* X9 S9)))
 (= X10 (- (* X9 S8) (* X6 S9)))
 (= X10 (+ (* X7 S8) S9))
 (= X10 (- (* X7 S8) S9))
 (= X10 (- S8 (* X7 S9)))
 (= X10 (+ (* X7 S8) (* X7 S9)))
 (= X10 (- (* X7 S8) (* X7 S9)))
 (= X10 (+ (* X7 S8) (* X8 S9)))
 (= X10 (- (* X7 S8) (* X8 S9)))
 (= X10 (- (* X8 S8) (* X7 S9)))
 (= X10 (+ (* X7 S8) (* X9 S9)))
 (= X10 (- (* X7 S8) (* X9 S9)))
 (= X10 (- (* X9 S8) (* X7 S9)))
 (= X10 (+ (* X8 S8) S9))
 (= X10 (- (* X8 S8) S9))
 (= X10 (- S8 (* X8 S9)))
 (= X10 (+ (* X8 S8) (* X8 S9)))
 (= X10 (- (* X8 S8) (* X8 S9)))
 (= X10 (+ (* X8 S8) (* X9 S9)))
 (= X10 (- (* X8 S8) (* X9 S9)))
 (= X10 (- (* X9 S8) (* X8 S9)))
 (= X10 (+ (* X9 S8) S9))
 (= X10 (- (* X9 S8) S9))
 (= X10 (- S8 (* X9 S9)))
 (= X10 (+ (* X9 S8) (* X9 S9)))
 (= X10 (- (* X9 S8) (* X9 S9)))
))
(assert (and (> X10 0) (< X10 4096) (power2 S8) (power2 S9)))
(assert (or
 (= X7 445)
 (= X8 445)
 (= X9 445)
 (= X10 445)
))
(assert (or
 (= X7 89)
 (= X8 89)
 (= X9 89)
 (= X10 89)
))
(assert (or
 (= X7 973)
 (= X8 973)
 (= X9 973)
 (= X10 973)
))
(assert (or
 (= X7 273)
 (= X8 273)
 (= X9 273)
 (= X10 273)
))
(check-sat)
(exit)
